c colouring generated by benchmark framework
p edge 425 8688
v 1 21
v 2 9
v 3 17
v 4 18
v 5 19
v 6 7
v 7 23
v 8 27
v 9 5
v 10 1
v 11 0
v 12 26
v 13 16
v 14 24
v 15 2
v 16 11
v 17 26
v 18 29
v 19 28
v 20 3
v 21 1
v 22 21
v 23 24
v 24 13
v 25 9
v 26 5
v 27 11
v 28 18
v 29 25
v 30 0
v 31 2
v 32 7
v 33 27
v 34 21
v 35 14
v 36 11
v 37 27
v 38 23
v 39 7
v 40 25
v 41 15
v 42 25
v 43 12
v 44 14
v 45 8
v 46 0
v 47 21
v 48 25
v 49 5
v 50 20
v 51 21
v 52 8
v 53 16
v 54 0
v 55 17
v 56 6
v 57 12
v 58 15
v 59 20
v 60 12
v 61 15
v 62 16
v 63 22
v 64 19
v 65 15
v 66 12
v 67 20
v 68 20
v 69 15
v 70 4
v 71 4
v 72 6
v 73 12
v 74 19
v 75 4
v 76 4
v 77 8
v 78 4
v 79 6
v 80 3
v 81 8
v 82 10
v 83 12
v 84 13
v 85 14
v 86 15
v 87 12
v 88 4
v 89 4
v 90 10
v 91 6
v 92 8
v 93 16
v 94 6
v 95 6
v 96 20
v 97 12
v 98 8
v 99 10
v 100 10
v 101 12
v 102 14
v 103 16
v 104 8
v 105 20
v 106 4
v 107 24
v 108 15
v 109 23
v 110 14
v 111 14
v 112 16
v 113 23
v 114 16
v 115 15
v 116 15
v 117 15
v 118 18
v 119 12
v 120 15
v 121 19
v 122 8
v 123 17
v 124 16
v 125 19
v 126 20
v 127 10
v 128 22
v 129 10
v 130 8
v 131 10
v 132 10
v 133 8
v 134 14
v 135 8
v 136 8
v 137 10
v 138 8
v 139 10
v 140 9
v 141 20
v 142 12
v 143 12
v 144 19
v 145 12
v 146 12
v 147 15
v 148 20
v 149 12
v 150 20
v 151 3
v 152 12
v 153 17
v 154 12
v 155 12
v 156 10
v 157 22
v 158 16
v 159 14
v 160 15
v 161 14
v 162 16
v 163 15
v 164 20
v 165 16
v 166 18
v 167 27
v 168 15
v 169 3
v 170 14
v 171 14
v 172 16
v 173 20
v 174 15
v 175 14
v 176 16
v 177 17
v 178 17
v 179 23
v 180 16
v 181 19
v 182 17
v 183 22
v 184 14
v 185 16
v 186 15
v 187 19
v 188 20
v 189 17
v 190 16
v 191 17
v 192 17
v 193 22
v 194 19
v 195 22
v 196 20
v 197 22
v 198 15
v 199 10
v 200 25
v 201 22
v 202 22
v 203 25
v 204 28
v 205 25
v 206 22
v 207 22
v 208 25
v 209 23
v 210 15
v 211 17
v 212 16
v 213 15
v 214 17
v 215 19
v 216 16
v 217 15
v 218 16
v 219 22
v 220 17
v 221 19
v 222 19
v 223 22
v 224 17
v 225 22
v 226 23
v 227 4
v 228 20
v 229 25
v 230 22
v 231 20
v 232 20
v 233 10
v 234 22
v 235 16
v 236 15
v 237 8
v 238 25
v 239 4
v 240 10
v 241 6
v 242 6
v 243 8
v 244 6
v 245 4
v 246 4
v 247 10
v 248 12
v 249 20
v 250 10
v 251 14
v 252 6
v 253 4
v 254 15
v 255 8
v 256 15
v 257 10
v 258 19
v 259 6
v 260 12
v 261 27
v 262 6
v 263 10
v 264 17
v 265 14
v 266 12
v 267 14
v 268 13
v 269 12
v 270 13
v 271 15
v 272 20
v 273 25
v 274 29
v 275 17
v 276 10
v 277 12
v 278 12
v 279 10
v 280 14
v 281 15
v 282 12
v 283 10
v 284 10
v 285 15
v 286 12
v 287 12
v 288 12
v 289 12
v 290 12
v 291 14
v 292 12
v 293 12
v 294 12
v 295 12
v 296 14
v 297 15
v 298 14
v 299 14
v 300 12
v 301 12
v 302 12
v 303 14
v 304 20
v 305 6
v 306 12
v 307 22
v 308 12
v 309 12
v 310 20
v 311 14
v 312 15
v 313 15
v 314 16
v 315 17
v 316 15
v 317 16
v 318 20
v 319 8
v 320 8
v 321 8
v 322 16
v 323 24
v 324 0
v 325 15
v 326 21
v 327 22
v 328 22
v 329 16
v 330 27
v 331 16
v 332 17
v 333 16
v 334 17
v 335 27
v 336 17
v 337 19
v 338 20
v 339 15
v 340 20
v 341 22
v 342 20
v 343 6
v 344 19
v 345 8
v 346 8
v 347 20
v 348 8
v 349 16
v 350 19
v 351 8
v 352 19
v 353 20
v 354 17
v 355 20
v 356 27
v 357 20
v 358 19
v 359 28
v 360 22
v 361 21
v 362 1
v 363 22
v 364 22
v 365 18
v 366 22
v 367 1
v 368 14
v 369 16
v 370 12
v 371 15
v 372 14
v 373 22
v 374 14
v 375 0
v 376 16
v 377 20
v 378 19
v 379 17
v 380 14
v 381 17
v 382 17
v 383 17
v 384 20
v 385 22
v 386 23
v 387 20
v 388 24
v 389 19
v 390 15
v 391 10
v 392 10
v 393 12
v 394 10
v 395 15
v 396 12
v 397 12
v 398 16
v 399 7
v 400 14
v 401 17
v 402 20
v 403 22
v 404 25
v 405 8
v 406 16
v 407 10
v 408 19
v 409 10
v 410 22
v 411 10
v 412 12
v 413 14
v 414 12
v 415 15
v 416 14
v 417 25
v 418 21
v 419 15
v 420 8
v 421 14
v 422 15
v 423 8
v 424 0
v 425 8
